language Essence 1.3

letting black be {(1, 1), (1, 2), (1, 4), (1, 5)}
$ Visualisation for black
$ 1 1
$ 1 2
$ 1 4
$ 1 5

letting white be {(4, 3), (4, 6), (5, 3), (6, 3)}
$ Visualisation for white
$ 4 3
$ 4 6
$ 5 3
$ 6 3

